<number of tasks>
50

<cycle time>
1000

<order strength>
0.201


<task times>
1 266
2 520
3 510
4 122
5 175
6 141
7 156
8 23
9 380
10 116
11 203
12 185
13 298
14 298
15 275
16 239
17 149
18 340
19 37
20 97
21 208
22 347
23 164
24 83
25 511
26 399
27 133
28 133
29 151
30 215
31 561
32 101
33 243
34 399
35 269
36 249
37 256
38 280
39 245
40 623
41 77
42 304
43 62
44 352
45 217
46 546
47 142
48 578
49 78
50 432

<precedence relations>
1,7
1,10
2,21
3,9
5,8
7,12
8,11
8,13
9,13
9,44
10,14
11,15
12,16
13,17
13,19
13,20
14,18
14,21
14,22
14,23
15,24
16,26
17,28
18,29
19,25
19,27
20,31
21,44
22,30
24,37
25,33
26,34
27,35
28,32
29,38
30,36
30,37
30,39
32,40
33,42
34,44
35,41
36,43
38,45
40,47
41,47
42,46
43,48
44,48
44,49
45,50

<end>
